Copyright (C) 2013-2015, Filipe Brandao
Build (method = -2)
  #dp: 184823
  Step-3' Graph: 856 vertices and 70195 arcs (1.18s)
  Step-4' Graph: 851 vertices and 70185 arcs (1.20s)
  #V4/#V3 = 0.99
  #A4/#A3 = 1.00
Ready! (1.21s)
Optimize a model with 988 rows, 70186 columns and 208860 nonzeros
Presolve removed 3 rows and 3 columns
Presolve time: 0.37s
Presolved: 985 rows, 70183 columns, 208853 nonzeros
Variable types: 0 continuous, 70183 integer (7262 binary)
Optimize a model with 985 rows, 70183 columns and 208853 nonzeros
Presolved: 985 rows, 70183 columns, 208853 nonzeros

Root barrier log...

Ordering time: 0.02s

Barrier statistics:
 AA' NZ     : 1.304e+05
 Factor NZ  : 2.713e+05 (roughly 30 MBytes of memory)
 Factor Ops : 9.311e+07 (less than 1 second per iteration)
 Threads    : 1

                  Objective                Residual
Iter       Primal          Dual         Primal    Dual     Compl     Time
   0   6.62625545e+05 -3.90644637e+06  2.72e+07 3.25e-02  2.77e+03     0s
   1   1.99800764e+05 -1.48778661e+06  4.43e+06 1.01e-01  4.58e+02     0s
   2   2.66640208e+04 -4.08772723e+05  3.62e+05 5.69e-03  4.00e+01     0s
   3   4.35382678e+03 -1.73842022e+05  2.41e+04 2.75e-14  3.64e+00     0s
   4   3.63959140e+03 -1.23730578e+05  9.25e+03 1.42e-14  1.71e+00     0s
   5   3.21119329e+03 -9.02390693e+04  5.93e+03 8.22e-15  1.13e+00     0s
   6   2.59633815e+03 -5.15582833e+04  2.92e+03 9.33e-15  5.81e-01     0s
   7   2.14566604e+03 -2.55695716e+04  1.76e+03 1.42e-14  2.98e-01     0s
   8   1.95192797e+03 -1.75015247e+04  1.39e+03 1.73e-14  2.11e-01     0s
   9   1.91919606e+03 -1.58472551e+04  1.33e+03 1.51e-14  1.94e-01     0s
  10   1.83407113e+03 -1.50247515e+04  1.18e+03 1.49e-14  1.79e-01     1s
  11   1.67804576e+03 -1.03854035e+04  9.64e+02 1.02e-14  1.30e-01     1s
  12   1.49816909e+03 -7.42960890e+03  7.25e+02 7.77e-15  9.39e-02     1s
  13   1.39655462e+03 -6.47753355e+03  6.31e+02 7.33e-15  8.14e-02     1s
  14   1.16649993e+03 -4.27255337e+03  4.37e+02 7.77e-15  5.42e-02     1s
  15   9.04035784e+02 -2.76001536e+03  2.78e+02 5.55e-15  3.48e-02     1s
  16   7.44390828e+02 -2.03988479e+03  1.90e+02 4.66e-15  2.52e-02     1s
  17   6.93158950e+02 -1.93239085e+03  1.71e+02 4.66e-15  2.34e-02     1s
  18   6.36734257e+02 -1.39574958e+03  1.47e+02 3.33e-15  1.79e-02     1s
  19   5.27570621e+02 -7.75626135e+02  8.56e+01 2.78e-15  1.08e-02     1s
  20   4.88477504e+02 -6.62541145e+02  5.73e+01 2.44e-15  9.12e-03     1s
  21   4.78609375e+02 -6.07017486e+02  5.48e+01 2.44e-15  8.61e-03     1s
  22   4.53364317e+02 -5.96721239e+02  4.78e+01 2.97e-15  8.25e-03     1s
  23   4.11237308e+02 -4.51639633e+02  3.94e+01 2.64e-15  6.77e-03     1s
  24   2.82592035e+02 -2.19737806e+02  2.65e+01 2.07e-15  3.97e-03     1s
  25   2.28260768e+02 -1.71248857e+02  2.06e+01 2.23e-15  3.14e-03     1s
  26   2.13263931e+02 -1.10519424e+02  1.91e+01 2.05e-15  2.56e-03     1s
  27   1.89228633e+02 -8.35580335e+01  1.66e+01 2.18e-15  2.16e-03     1s
  28   1.36393605e+02 -4.05246673e+01  1.11e+01 2.07e-15  1.39e-03     1s
  29   1.06904023e+02 -1.68977161e+01  7.43e+00 2.02e-15  9.64e-04     1s
  30   8.99330531e+01 -9.39848767e+00  5.29e+00 2.43e-15  7.63e-04     1s
  31   8.30231642e+01 -2.56116384e+00  4.03e+00 2.43e-15  6.50e-04     1s
  32   8.00985667e+01  1.80883565e+00  3.11e+00 2.82e-15  5.87e-04     1s
  33   7.91526315e+01  2.58274897e+01  2.78e+00 2.13e-15  4.00e-04     2s
  34   7.75837337e+01  4.27921288e+01  1.93e+00 2.08e-15  2.57e-04     2s
  35   7.51071580e+01  5.09501367e+01  1.28e+00 2.11e-15  1.77e-04     2s
  36   7.40443620e+01  5.71050820e+01  8.97e-01 2.16e-15  1.23e-04     2s
  37   7.16367862e+01  6.27205004e+01  2.44e-01 1.87e-15  6.39e-05     2s
  38   7.11368059e+01  6.68563521e+01  1.42e-01 1.78e-15  3.06e-05     2s
  39   7.07990410e+01  6.82032150e+01  8.08e-02 1.87e-15  1.86e-05     2s
  40   7.06570926e+01  6.90406446e+01  5.68e-02 1.89e-15  1.16e-05     2s
  41   7.05520500e+01  6.94959456e+01  3.94e-02 1.82e-15  7.55e-06     2s
  42   7.04895916e+01  6.97309464e+01  2.93e-02 2.01e-15  5.42e-06     2s
  43   7.04509007e+01  6.98545487e+01  2.33e-02 2.07e-15  4.26e-06     2s
  44   7.03870223e+01  7.00066204e+01  1.31e-02 1.93e-15  2.72e-06     2s
  45   7.03378330e+01  7.02419695e+01  5.07e-03 1.66e-15  6.86e-07     2s
  46   7.03040539e+01  7.03035058e+01  1.30e-12 1.55e-15  3.90e-09     2s
  47   7.03040001e+01  7.03039995e+01  1.18e-13 1.58e-15  3.90e-12     2s

Barrier solved model in 47 iterations and 2.18 seconds
Optimal objective 7.03040001e+01


Root relaxation: objective 7.030400e+01, 56774 iterations, 4.29 seconds
Total elapsed time = 10.69s
Total elapsed time = 16.25s
Total elapsed time = 20.23s

    Nodes    |    Current Node    |     Objective Bounds      |     Work
 Expl Unexpl |  Obj  Depth IntInf | Incumbent    BestBd   Gap | It/Node Time

     0     0   70.30400    0  201          -   70.30400     -      -   28s
H    0     0                      72.0000000   70.30400  2.36%     -   29s

Explored 0 nodes (100927 simplex iterations) in 60.00 seconds
Thread count was 1 (of 4 available processors)

Time limit reached
Best objective 7.200000000000e+01, best bound 7.100000000000e+01, gap 1.3889%
Preprocessing time: 1.33 seconds
Gurobi run time: 60.00 seconds
Total run time: 61.33 seconds
Objective: 72
Solution:
1 x [i=1, i=3, i=31, i=62, i=75, i=90]
1 x [i=1, i=9, i=38, i=42, i=111, i=132, i=136]
1 x [i=1, i=38, i=42, i=43, i=111, i=135]
1 x [i=2, i=3, i=11, i=28, i=94, i=124]
1 x [i=2, i=9, i=39, i=58, i=110, i=125, i=127]
1 x [i=3, i=7, i=27, i=36, i=52, i=136]
2 x [i=3, i=52, i=56, i=59, i=70, i=94, i=136]
2 x [i=4, i=33, i=38, i=61, i=105, i=112, i=116]
1 x [i=5, i=31, i=48, i=72, i=92, i=110, i=112]
1 x [i=5, i=60, i=62, i=91, i=95, i=100, i=131, i=135]
1 x [i=6, i=48, i=56, i=68, i=74, i=98, i=120]
1 x [i=8, i=10, i=23, i=79, i=85]
2 x [i=8, i=47, i=57, i=60, i=85, i=87, i=126]
1 x [i=9, i=14, i=39, i=78, i=103, i=110, i=118]
3 x [i=9, i=15, i=21, i=49, i=75, i=93]
1 x [i=9, i=39, i=45, i=70, i=126, i=128, i=130]
2 x [i=11, i=12, i=13, i=20, i=102, i=105]
1 x [i=11, i=71, i=74, i=107, i=136]
1 x [i=12, i=13, i=24, i=84, i=94, i=113, i=130]
1 x [i=13, i=29, i=44, i=83, i=89, i=92, i=120]
2 x [i=14, i=16, i=73, i=97, i=103, i=118, i=128, i=130]
2 x [i=14, i=18, i=31, i=78, i=96, i=108, i=125]
2 x [i=14, i=25, i=25, i=42, i=43, i=111]
1 x [i=15, i=25, i=27, i=28, i=114, i=123, i=136]
3 x [i=15, i=25, i=75, i=76, i=106, i=114, i=133, i=134]
1 x [i=16, i=18, i=43, i=58, i=99, i=112, i=123]
1 x [i=16, i=20, i=27, i=39, i=62, i=97]
1 x [i=16, i=30, i=50, i=64, i=98, i=99, i=113]
1 x [i=16, i=55, i=66, i=71, i=86, i=121]
1 x [i=16, i=55, i=55, i=66, i=71, i=86, i=121]
1 x [i=16, i=67, i=72, i=77, i=94, i=117, i=128]
1 x [i=17, i=24, i=24, i=77, i=84, i=113, i=130]
1 x [i=18, i=31, i=34, i=75, i=77, i=109, i=125]
2 x [i=19, i=35, i=47, i=51, i=70, i=111, i=135]
1 x [i=20, i=21, i=36, i=38, i=46, i=99]
1 x [i=20, i=26, i=28, i=31, i=60, i=95]
1 x [i=20, i=37, i=40, i=60, i=77, i=106, i=129]
1 x [i=21, i=41, i=49, i=79, i=111, i=126]
3 x [i=22, i=29, i=44, i=82, i=83, i=89, i=120]
1 x [i=23, i=54, i=64, i=67, i=77, i=130, i=131, i=131]
1 x [i=25, i=50, i=79, i=83, i=98, i=99, i=113, i=131]
1 x [i=27, i=50, i=53, i=69, i=74, i=84, i=112]
1 x [i=30, i=34, i=39, i=65, i=77, i=119]
1 x [i=30, i=34, i=63, i=77, i=106, i=119, i=136]
1 x [i=32, i=62, i=71, i=109, i=115, i=122, i=131]
1 x [i=32, i=62, i=92, i=99, i=107, i=115, i=122, i=126, i=131]
2 x [i=35, i=56, i=57, i=57, i=68, i=87, i=110]
2 x [i=36, i=38, i=40, i=41, i=80, i=115, i=118]
1 x [i=37, i=40, i=78, i=78, i=88, i=103, i=125, i=129]
1 x [i=40, i=50, i=78, i=88, i=98, i=99, i=112]
2 x [i=41, i=46, i=61, i=66, i=69, i=86, i=101]
1 x [i=43, i=45, i=51, i=72, i=104, i=111, i=123, i=128]
1 x [i=45, i=48, i=95, i=100, i=105, i=126, i=128, i=135]
1 x [i=45, i=48, i=95, i=100, i=105, i=105, i=126, i=128, i=135]
1 x [i=48, i=70, i=79, i=81, i=100, i=117, i=126, i=128, i=137]
